proyfinal/src/viki/013/andrea/andrea-localstore/experimentInOfficeAgust.take6/worker_5/adc67995-e5c2-44f7-8298-5ab1a74f8f2f.als.cnf.out
Reading from standard input... Use '--help' for help.
============================[ Problem Statistics ]=============================
|                                                                             |
|  Number of variables:         87638                                         |
|  Number of clauses:          161767                                         |
|  Parse time:                   0.04 s                                       |
|                                                                             |
============================[ Search Statistics ]==============================
| Conflicts |          ORIGINAL         |          LEARNT          | Progress |
|           |    Vars  Clauses Literals |    Limit  Clauses Lit/Cl |          |
===============================================================================
|       100 |   62014   103908   259579 |    38099      100     21 | 29.238 % |
|       250 |   62010   103884   259519 |    41909      248     30 | 29.243 % |
|       475 |   62010   103881   259513 |    46100      473     39 | 29.243 % |
|       812 |   62010   103881   259513 |    50710      810     67 | 29.243 % |
|      1318 |   62010   103881   259513 |    55781     1316     68 | 29.243 % |
|      2077 |   62010   103881   259513 |    61359     2075     69 | 29.243 % |
|      3216 |   62010   103881   259513 |    67495     3214     71 | 29.243 % |
|      4924 |   62006   103865   259469 |    74245     4920     73 | 29.248 % |
|      7486 |   61981   103725   259146 |    81669     7474     89 | 29.276 % |
|     11330 |   61920   103452   258569 |    89836    10573     96 | 29.346 % |
===============================================================================
restarts              : 62
conflicts             : 14716          (6460 /sec)
decisions             : 43829          (0.00 % random) (19239 /sec)
propagations          : 21376217       (9383007 /sec)
conflict literals     : 1320048        (52.29 % deleted)
Memory used           : 34.65 MB
CPU time              : 2.27818 s

UNSATISFIABLE
